\ This file was automatically generated by Zimpl
\ set I := { 1 to 9 };
\ var x[I] binary;
\ var y binary;
\ var z binary;
\ var a;
\ subto c1: x[1]^2 == x[1]^1 + x[1]^0;
\ subto c2: 2 * x[1] * 3 * x[2] * 5 * x[3] <= 77;
\ subto c3: y * z == y^2 * z^3 * 4;
\ subto c4: sum <i> in I : i*x[i]^i == 8;
\ subto c5: (y + 5) * (z + 2) == 3;
\ subto c6: (4/2 * x[1] + 2/3 * x[2])^2 == 9;
\ subto c7: log(a) == 5;
\ subto c8: sqrt(a) == 2;
\ subto c9: exp(a) == 3;
\ subto c10: ln(a) <= 7;
\ subto c11: sin(a) <= 8;
\ subto c12: cos(a) <= 9;
\ subto c13: tan(a) >= 2;
\ subto c14: abs(a) >= 6;
\ subto c15: sgn(a) == z;
\ subto c16: pow(a, 2/3) >= 7;
\ subto c17: sgnpow(a, 12^2) <= 200;
\ subto c18: 16 * log(sqrt(exp(ln(sin(cos(tan(abs(sgn(pow(sgnpow(a, -2), -3)))))))))) == 99;
\Problem name: minlp.zpl
Minimize
 Objective: 
Subject to
 c1_1:
  - x#1
  + [ + x#1^2 ]
 = 1
 c2_1:
 \  +30 x#1 * x#2 * x#3 <= 77
 c3_1:
 \  + y * z -4 y^2 * z^3 = 0
 c4_1:
 \  + x#1 +2 x#2^2 +3 x#3^3 +4 x#4^4 +5 x#5^5 +6 x#6^6
\  +7 x#7^7 +8 x#8^8 +9 x#9^9 = 8
 c5_1:
  +5 z +2 y
  + [ + y * z ]
 = -7
 c6_1:
  + [ +0.444444444444444 x#2^2 +2.66666666666667 x#1 * x#2 +4 x#1^2 ]
 = 9
 c7_1_a_0:
  - __c7_1_t_0@c + a = 0
 c7_1_b_1:
 \  -1 __c7_1_r_1@d + log(__c7_1_t_0@c)  = 0
 c7_1:
  + __c7_1_r_1@d = 5
 c8_1_a_2:
  - __c8_1_t_2@e + a = 0
 c8_1_b_3:
 \  -1 __c8_1_r_3@f + sqrt(__c8_1_t_2@e)  = 0
 c8_1:
  + __c8_1_r_3@f = 2
 c9_1_a_4:
  - __c9_1_t_4@10 + a = 0
 c9_1_b_5:
 \  -1 __c9_1_r_5@11 + exp(__c9_1_t_4@10)  = 0
 c9_1:
  + __c9_1_r_5@11 = 3
 c10_1_a_6:
  - __c10_1_t_6@12 + a = 0
 c10_1_b_7:
 \  -1 __c10_1_r_7@13 + ln(__c10_1_t_6@12)  = 0
 c10_1:
  + __c10_1_r_7@13 <= 7
 c11_1_a_8:
  - __c11_1_t_8@14 + a = 0
 c11_1_b_9:
 \  -1 __c11_1_r_9@15 + sin(__c11_1_t_8@14)  = 0
 c11_1:
  + __c11_1_r_9@15 <= 8
 c12_1_a_10:
  - __c12_1_t_10@16 + a = 0
 c12_1_b_11:
 \  -1 __c12_1_r_11@17 + cos(__c12_1_t_10@16)  = 0
 c12_1:
  + __c12_1_r_11@17 <= 9
 c13_1_a_12:
  - __c13_1_t_12@18 + a = 0
 c13_1_b_13:
 \  -1 __c13_1_r_13@19 + tan(__c13_1_t_12@18)  = 0
 c13_1:
  + __c13_1_r_13@19 >= 2
 c14_1_a_14:
  - __c14_1_t_14@1a + a = 0
 c14_1_b_15:
 \  -1 __c14_1_r_15@1b + abs(__c14_1_t_14@1a)  = 0
 c14_1:
  + __c14_1_r_15@1b >= 6
 c15_1_a_16:
  - __c15_1_t_16@1c + a = 0
 c15_1_b_17:
 \  -1 __c15_1_r_17@1d + sgn(__c15_1_t_16@1c)  = 0
 c15_1:
  - z + __c15_1_r_17@1d = 0
 c16_1_a_18:
  - __c16_1_t_18@1e + a = 0
 c16_1_b_19:
 \  -1 __c16_1_r_19@1f + pow(__c16_1_t_18@1e ,0.666666666666667)  = 0
 c16_1:
  + __c16_1_r_19@1f >= 7
 c17_1_a_20:
  - __c17_1_t_20@20 + a = 0
 c17_1_b_21:
 \  -1 __c17_1_r_21@21 + sgnpow(__c17_1_t_20@20 ,144)  = 0
 c17_1:
  + __c17_1_r_21@21 <= 200
 c18_1_a_22:
  - __c18_1_t_22@22 + a = 0
 c18_1_b_23:
 \  -1 __c18_1_r_23@23 + sgnpow(__c18_1_t_22@22 ,-2)  = 0
 c18_1_a_24:
  - __c18_1_t_24@24 + __c18_1_r_23@23 = 0
 c18_1_b_25:
 \  -1 __c18_1_r_25@25 + pow(__c18_1_t_24@24 ,-3)  = 0
 c18_1_a_26:
  - __c18_1_t_26@26 + __c18_1_r_25@25 = 0
 c18_1_b_27:
 \  -1 __c18_1_r_27@27 + sgn(__c18_1_t_26@26)  = 0
 c18_1_a_28:
  - __c18_1_t_28@28 + __c18_1_r_27@27 = 0
 c18_1_b_29:
 \  -1 __c18_1_r_29@29 + abs(__c18_1_t_28@28)  = 0
 c18_1_a_30:
  - __c18_1_t_30@2a + __c18_1_r_29@29 = 0
 c18_1_b_31:
 \  -1 __c18_1_r_31@2b + tan(__c18_1_t_30@2a)  = 0
 c18_1_a_32:
  - __c18_1_t_32@2c + __c18_1_r_31@2b = 0
 c18_1_b_33:
 \  -1 __c18_1_r_33@2d + cos(__c18_1_t_32@2c)  = 0
 c18_1_a_34:
  - __c18_1_t_34@2e + __c18_1_r_33@2d = 0
 c18_1_b_35:
 \  -1 __c18_1_r_35@2f + sin(__c18_1_t_34@2e)  = 0
 c18_1_a_36:
  - __c18_1_t_36@30 + __c18_1_r_35@2f = 0
 c18_1_b_37:
 \  -1 __c18_1_r_37@31 + ln(__c18_1_t_36@30)  = 0
 c18_1_a_38:
  - __c18_1_t_38@32 + __c18_1_r_37@31 = 0
 c18_1_b_39:
 \  -1 __c18_1_r_39@33 + exp(__c18_1_t_38@32)  = 0
 c18_1_a_40:
  - __c18_1_t_40@34 + __c18_1_r_39@33 = 0
 c18_1_b_41:
 \  -1 __c18_1_r_41@35 + sqrt(__c18_1_t_40@34)  = 0
 c18_1_a_42:
  - __c18_1_t_42@36 + __c18_1_r_41@35 = 0
 c18_1_b_43:
 \  -1 __c18_1_r_43@37 + log(__c18_1_t_42@36)  = 0
 c18_1:
  +16 __c18_1_r_43@37 = 99
Bounds
 0 <= x#1 <= 1
 0 <= x#2 <= 1
 0 <= x#3 <= 1
 0 <= x#4 <= 1
 0 <= x#5 <= 1
 0 <= x#6 <= 1
 0 <= x#7 <= 1
 0 <= x#8 <= 1
 0 <= x#9 <= 1
 0 <= y <= 1
 0 <= z <= 1
 0 <= a <= +inf
 0 <= __c7_1_t_0@c <= +inf
 -inf <= __c7_1_r_1@d <= +inf
 0 <= __c8_1_t_2@e <= +inf
 0 <= __c8_1_r_3@f <= +inf
 -inf <= __c9_1_t_4@10 <= +inf
 -inf <= __c9_1_r_5@11 <= +inf
 0 <= __c10_1_t_6@12 <= +inf
 -inf <= __c10_1_r_7@13 <= +inf
 -inf <= __c11_1_t_8@14 <= +inf
 -1 <= __c11_1_r_9@15 <= 1
 -inf <= __c12_1_t_10@16 <= +inf
 -1 <= __c12_1_r_11@17 <= 1
 -inf <= __c13_1_t_12@18 <= +inf
 -inf <= __c13_1_r_13@19 <= +inf
 -inf <= __c14_1_t_14@1a <= +inf
 0 <= __c14_1_r_15@1b <= +inf
 -inf <= __c15_1_t_16@1c <= +inf
 -1 <= __c15_1_r_17@1d <= 1
 -inf <= __c16_1_t_18@1e <= +inf
 -inf <= __c16_1_r_19@1f <= +inf
 -inf <= __c17_1_t_20@20 <= +inf
 -inf <= __c17_1_r_21@21 <= +inf
 -inf <= __c18_1_t_22@22 <= +inf
 -inf <= __c18_1_r_23@23 <= +inf
 -inf <= __c18_1_t_24@24 <= +inf
 -inf <= __c18_1_r_25@25 <= +inf
 -inf <= __c18_1_t_26@26 <= +inf
 -1 <= __c18_1_r_27@27 <= 1
 -inf <= __c18_1_t_28@28 <= +inf
 0 <= __c18_1_r_29@29 <= +inf
 -inf <= __c18_1_t_30@2a <= +inf
 -inf <= __c18_1_r_31@2b <= +inf
 -inf <= __c18_1_t_32@2c <= +inf
 -1 <= __c18_1_r_33@2d <= 1
 -inf <= __c18_1_t_34@2e <= +inf
 -1 <= __c18_1_r_35@2f <= 1
 0 <= __c18_1_t_36@30 <= +inf
 -inf <= __c18_1_r_37@31 <= +inf
 -inf <= __c18_1_t_38@32 <= +inf
 -inf <= __c18_1_r_39@33 <= +inf
 0 <= __c18_1_t_40@34 <= +inf
 0 <= __c18_1_r_41@35 <= +inf
 0 <= __c18_1_t_42@36 <= +inf
 -inf <= __c18_1_r_43@37 <= +inf
General
 x#1
 x#2
 x#3
 x#4
 x#5
 x#6
 x#7
 x#8
 x#9
 y
 z
 __c15_1_r_17@1d
 __c18_1_r_27@27
End
